100 8
160 290
810 728
236 657
878 774
797 181
286 585
764 802
806 291
336 834
453 519
626 372
433 814
800 155
133 752
284 788
592 715
588 762
269 897
144 667
873 257
791 703
838 765
293 302
477 374
283 331
91 911
649 401
511 159
572 217
555 359
456 300
838 294
569 685
584 459
506 753
455 468
850 646
525 470
620 523
159 200
157 857
642 424
922 518
399 844
178 923
456 711
385 436
567 731
741 664
826 621
293 676
614 482
415 535
721 775
505 454
992 572
143 703
890 804
764 761
466 221
225 196
730 643
209 764
175 777
631 508
368 152
388 811
835 200
335 685
381 724
642 251
242 839
487 724
633 644
626 579
467 141
651 430
785 657
511 556
130 185
423 546
562 726
955 566
157 311
694 211
384 471
495 528
749 775
478 421
446 120
186 883
639 650
706 219
141 876
729 246
906 509
376 208
423 372
817 645
202 238
